50

100 0 268
99 14 278
98 39 219
97 29 162
94 11 206
93 11 262
91 6 193
89 30 179
89 37 185
89 29 245
85 34 194
85 35 205
84 4 198
83 26 141
81 10 152
81 16 227
78 20 223
73 31 212
73 21 172
73 17 196
73 1 292
70 10 223
69 16 259
68 8 144
64 31 199
64 28 263
63 14 299
59 7 159
54 0 151
49 23 254
48 24 233
45 9 262
45 20 238
43 17 289
42 10 145
41 14 181
39 15 210
37 15 277
37 18 284
36 12 221
32 10 186
30 10 297
26 13 147
26 2 140
25 5 272
24 7 296
24 4 235
23 3 160
21 2 216
21 2 249
